% Logging successfully configured
%%%mzn-stat: initTime=0.053065889
%%%mzn-stat: objective=437
%%%mzn-stat: nodes=1693
%%%mzn-stat: restarts=0
%%%mzn-stat: peakDepth=1630
%%%mzn-stat: solveTime=0.018216388
%%%mzn-stat: variables=2509
%%%mzn-stat: propagators=7005
%%%mzn-stat: failures=44
%%%mzn-stat: propagations=52394
%%%mzn-stat: nogoods=44
%%%mzn-stat: numAtomicConstraintsPropagated=0
%%%mzn-stat: circuitNumber4951PropagationsThatFoundConflict=2
%%%mzn-stat: circuitNumber4951TotalFixedEdgesAtConflict=173
%%%mzn-stat: circuitNumber4951NumberOfConflicts=2
%%%mzn-stat: circuitNumber4951PropagationsThatPruned=12
%%%mzn-stat: circuitNumber4951PropagationsTotal=160
%%%mzn-stat: AverageConflictSize=2.909090909090909
%%%mzn-stat: NumUnitNogoodsLearned=0
%%%mzn-stat: AverageLearnedNogoodLength=18.863636363636363
%%%mzn-stat: AverageBacktrackAmount=0
%%%mzn-stat: AverageLbd=13.477272727272727
%%%mzn-stat: 2AutonomousSearchNumBackupCalled=1542
%%%mzn-stat: 2AutonomousSearchNumPredicatesRemoved=0
%%%mzn-stat: 2AutonomousSearchNumCalls=1543
%%%mzn-stat: 2AutonomousSearchNumPredicatesAdded=616
%%%mzn-stat: 2AutonomousSearchAverageSizeOfHeap=0.39922229423201555
%%%mzn-stat: 2AutonomousSearchNumAssignedPredicatesEncountered=616
%%%mzn-stat-end
maxleg = 437;
succ = array1d(1..100,[2, 5, 8, 19, 7, 15, 13, 6, 26, 12, 22, 3, 10, 1, 24, 14, 16, 17, 27, 18, 23, 25, 11, 21, 31, 33, 35, 9, 4, 20, 32, 52, 38, 29, 41, 43, 44, 40, 28, 42, 30, 48, 51, 47, 60, 39, 45, 54, 34, 49, 50, 59, 36, 69, 62, 53, 46, 63, 80, 57, 56, 37, 67, 55, 61, 65, 75, 81, 66, 77, 64, 71, 72, 73, 88, 58, 82, 79, 91, 86, 96, 84, 76, 85, 92, 87, 95, 94, 90, 93, 98, 99, 83, 74, 78, 100, 89, 68, 97, 70]);
% time elapsed: 10.60 s
----------
%%%mzn-stat: initTime=0.053065889
%%%mzn-stat: objective=436
%%%mzn-stat: nodes=12481
%%%mzn-stat: restarts=0
%%%mzn-stat: peakDepth=1636
%%%mzn-stat: solveTime=2.035254546
%%%mzn-stat: variables=2509
%%%mzn-stat: propagators=7005
%%%mzn-stat: failures=6063
%%%mzn-stat: propagations=4545982
%%%mzn-stat: nogoods=6063
%%%mzn-stat: numAtomicConstraintsPropagated=0
%%%mzn-stat: circuitNumber4951PropagationsThatFoundConflict=653
%%%mzn-stat: circuitNumber4951TotalFixedEdgesAtConflict=58956
%%%mzn-stat: circuitNumber4951NumberOfConflicts=653
%%%mzn-stat: circuitNumber4951PropagationsThatPruned=3055
%%%mzn-stat: circuitNumber4951PropagationsTotal=13324
%%%mzn-stat: AverageConflictSize=9.158997196107537
%%%mzn-stat: NumUnitNogoodsLearned=0
%%%mzn-stat: AverageLearnedNogoodLength=26.103908955962396
%%%mzn-stat: AverageBacktrackAmount=0
%%%mzn-stat: AverageLbd=13.787728847105393
%%%mzn-stat: 2AutonomousSearchNumBackupCalled=3092
%%%mzn-stat: 2AutonomousSearchNumPredicatesRemoved=0
%%%mzn-stat: 2AutonomousSearchNumCalls=3094
%%%mzn-stat: 2AutonomousSearchNumPredicatesAdded=2087
%%%mzn-stat: 2AutonomousSearchAverageSizeOfHeap=0.6758241758241759
%%%mzn-stat: 2AutonomousSearchNumAssignedPredicatesEncountered=2091
%%%mzn-stat-end
maxleg = 436;
succ = array1d(1..100,[2, 5, 8, 19, 7, 15, 13, 6, 26, 12, 22, 3, 10, 1, 24, 14, 16, 17, 27, 18, 23, 25, 11, 21, 31, 33, 35, 9, 4, 20, 32, 52, 38, 29, 41, 43, 44, 40, 28, 42, 30, 48, 51, 47, 60, 39, 45, 54, 34, 49, 50, 59, 36, 69, 62, 53, 46, 63, 80, 57, 56, 37, 67, 55, 61, 65, 75, 81, 66, 77, 64, 73, 79, 72, 88, 58, 82, 91, 71, 86, 96, 84, 76, 85, 92, 87, 95, 94, 90, 93, 98, 99, 83, 74, 78, 100, 89, 68, 97, 70]);
% time elapsed: 12.61 s
----------
%%%mzn-stat: initTime=0.053065889
%%%mzn-stat: objective=436
%%%mzn-stat: nodes=3390395
%%%mzn-stat: restarts=0
%%%mzn-stat: peakDepth=1636
%%%mzn-stat: solveTime=1789.757045893
%%%mzn-stat: variables=2509
%%%mzn-stat: propagators=7005
%%%mzn-stat: failures=2681028
%%%mzn-stat: propagations=1903630393
%%%mzn-stat: nogoods=2681028
%%%mzn-stat: numAtomicConstraintsPropagated=0
%%%mzn-stat: circuitNumber4951PropagationsThatFoundConflict=252855
%%%mzn-stat: circuitNumber4951TotalFixedEdgesAtConflict=22688741
%%%mzn-stat: circuitNumber4951NumberOfConflicts=252855
%%%mzn-stat: circuitNumber4951PropagationsThatPruned=1177741
%%%mzn-stat: circuitNumber4951PropagationsTotal=5280151
%%%mzn-stat: AverageConflictSize=18.473652643687423
%%%mzn-stat: NumUnitNogoodsLearned=0
%%%mzn-stat: AverageLearnedNogoodLength=53.72391000765378
%%%mzn-stat: AverageBacktrackAmount=0
%%%mzn-stat: AverageLbd=32.64766835706304
%%%mzn-stat: 2AutonomousSearchNumBackupCalled=3092
%%%mzn-stat: 2AutonomousSearchNumPredicatesRemoved=0
%%%mzn-stat: 2AutonomousSearchNumCalls=3094
%%%mzn-stat: 2AutonomousSearchNumPredicatesAdded=4454
%%%mzn-stat: 2AutonomousSearchAverageSizeOfHeap=0.6758241758241759
%%%mzn-stat: 2AutonomousSearchNumAssignedPredicatesEncountered=2091
%%%mzn-stat-end
